50, 1210
11, 16
22, 32
44, 64
33, 48
49, 54
98, 108
49, 54
20, 25
24, 29
48, 58
96, 116
72, 87
48, 53
96, 106
144, 159
16, 21
32, 42
34, 39
68, 78
102, 117
42, 47
84, 94
168, 188
84, 94
47, 52
94, 104
188, 208
25, 30
50, 60
100, 120
29, 34
58, 68
58, 68
10, 15
20, 30
30, 45
7, 12
14, 24
7, 12
31, 36
31, 36
8, 13
16, 26
16, 26
8, 13
16, 26
8, 13
11, 16
22, 32
33, 48
